Solving original (integer) problem with strategy gdp.hull...
--- Job model.gms Start 02/15/26 22:09:38 52.2.0 d8e408be LEX-LEG x86 64bit/Linux
--- Applying:
    /package/gams/52.2/gmsprmun.txt
--- GAMS Parameters defined
    Input /local/scratch/a/sgusev/repos/k_means/data/gams_scip_gdp.hull/no_mode/2026-02-15_22-09-37/original/model.gms
    Output /local/scratch/a/sgusev/repos/k_means/data/gams_scip_gdp.hull/no_mode/2026-02-15_22-09-37/original/output.lst
    ScrDir /local/scratch/a/sgusev/repos/k_means/data/gams_scip_gdp.hull/no_mode/2026-02-15_22-09-37/original/225a/
    SysDir /package/gams/52.2/
    CurDir /local/scratch/a/sgusev/repos/k_means/data/gams_scip_gdp.hull/no_mode/2026-02-15_22-09-37/original/
    LogOption 3
    AppendLog 1
Licensee: David Bernal / SECQUOIA Research Group         G251008+0003Ac-GEN
          Purdue University, Davidson School of Chemical EngineeringDCE4838
          225a/gamslice.dat
          5a82958a-fbca-4a23
          node:66820903 mem:995 cores:48 ipport:55877 v:2                  
          Evaluation license: Not for commercial or production use
          The time-limited license stops working on : Jun 30, 2027
System information: 48 physical cores and 995 Gb physical memory detected
GAMS 52.2.0   Copyright (C) 1987-2025 GAMS Development. All rights reserved
--- Starting compilation
--- model.gms(1652) 2 Mb
--- $echo File /local/scratch/a/sgusev/repos/k_means/data/gams_scip_gdp.hull/no_mode/2026-02-15_22-09-37/original/scip.opt
--- model.gms(2470) 2 Mb
--- Starting execution: elapsed 0:00:00.011
--- model.gms(1662) 3 Mb
--- Generating MINLP model GAMS_MODEL
--- model.gms(1666) 5 Mb
---   497 rows  254 columns  1,201 non-zeroes
---   1,209 nl-code  156 nl-non-zeroes
---   39 discrete-columns
--- Range statistics (absolute non-zero finite values)
--- RHS       [min, max] : [ 8.117E-06, 1.000E+00] - Zero values observed as well
--- Bound     [min, max] : [ 1.000E+00, 5.200E+01] - Zero values observed as well
--- Matrix    [min, max] : [ 8.117E-02, 5.200E+01]
--- model.gms(1666) 3 Mb
--- Executing SCIP (Solvelink=5): elapsed 0:00:00.016

SCIP             52.2.0 d8e408be Dec 8, 2025           LEG x86 64bit/Linux    
SCIP version 9.2.4 (a94f778ac8)
Copyright (c) 2002-2025 Zuse Institute Berlin (ZIB)

External libraries: 
  CPLEX 22.1.2.0       Linear Programming Solver developed by IBM (www.cplex.com)
  CppAD 20180000.0     Algorithmic Differentiation of C++ algorithms developed by B. Bell (github.com/coin-or/CppAD)
  PaPILO 2.4.4         parallel presolve for integer and linear optimization (github.com/scipopt/papilo) (built with TBB) [GitHash: 7c826d50]
  Nauty 2.8.9          Computing Graph Automorphism Groups by Brendan D. McKay (users.cecs.anu.edu.au/~bdm/nauty)
  sassy 1.1            Symmetry preprocessor by Markus Anders (github.com/markusa4/sassy)
  Ipopt 3.14.19        Interior Point Optimizer developed by A. Waechter et.al. (github.com/coin-or/Ipopt)

reading option file /local/scratch/a/sgusev/repos/k_means/data/gams_scip_gdp.hull/no_mode/2026-02-15_22-09-37/original/scip.opt
non-default parameter settings:
limits/time = 300
limits/gap = 1e-06
limits/absgap = 1e-10
lp/threads = 1
misc/printreason = FALSE
numerics/dualfeastol = 1e-06
parallel/maxnthreads = 1
nlpi/ipopt/linear_solver = "ma27"
nlpi/ipopt/linear_system_scaling = "mc19"

original problem has 253 variables (39 bin, 0 int, 214 cont) and 496 constraints

all 1 solutions given by solution candidate storage are infeasible

presolving:
(round 1, fast)       13 del vars, 0 del conss, 0 add conss, 0 chg bounds, 0 chg sides, 0 chg coeffs, 0 upgd conss, 0 impls, 13 clqs
(round 2, fast)       13 del vars, 0 del conss, 0 add conss, 0 chg bounds, 13 chg sides, 0 chg coeffs, 0 upgd conss, 0 impls, 13 clqs
(round 3, exhaustive) 13 del vars, 0 del conss, 0 add conss, 0 chg bounds, 13 chg sides, 0 chg coeffs, 364 upgd conss, 0 impls, 13 clqs
   (0.0s) probing cycle finished: starting next cycle
   (0.0s) symmetry computation started: requiring (bin +, int +, cont +), (fixed: bin -, int -, cont -)
   (0.0s) no symmetry present (symcode time: 0.00)
presolving (4 rounds: 4 fast, 2 medium, 2 exhaustive):
 13 deleted vars, 0 deleted constraints, 0 added constraints, 0 tightened bounds, 0 added holes, 13 changed sides, 0 changed coefficients
 741 implications, 13 cliques
presolved problem has 240 variables (39 bin, 0 int, 0 impl, 201 cont) and 496 constraints
    351 constraints of type <varbound>
     13 constraints of type <setppc>
     93 constraints of type <linear>
     39 constraints of type <nonlinear>
Presolving Time: 0.04

 time | node  | left  |LP iter|LP it/n|mem/heur|mdpt |vars |cons |rows |cuts |sepa|confs|strbr|  dualbound   | primalbound  |  gap   | compl. 
  0.1s|     1 |     0 |   538 |     - |    10M |   0 | 864 | 496 |1458 |   0 |  0 |   0 |   0 | 0.000000e+00 |      --      |    Inf | unknown
p 0.1s|     1 |     0 |   592 |     - |  clique|   0 | 864 | 496 |1458 |   0 |  0 |   0 |   0 | 0.000000e+00 | 8.877336e+00 |    Inf | unknown
  0.1s|     1 |     0 |   699 |     - |    11M |   0 | 864 | 496 |1489 |  31 |  1 |   0 |   0 | 0.000000e+00 | 8.877336e+00 |    Inf | unknown
  0.1s|     1 |     0 |   699 |     - |    11M |   0 | 864 | 496 |1476 |  31 |  1 |   0 |   0 | 0.000000e+00 | 8.877336e+00 |    Inf | unknown
  0.2s|     1 |     0 |   831 |     - |    11M |   0 | 864 | 496 |1531 |  86 |  2 |   0 |   0 | 0.000000e+00 | 8.877336e+00 |    Inf | unknown
  0.2s|     1 |     0 |   922 |     - |    11M |   0 | 864 | 496 |1566 | 121 |  3 |   0 |   0 | 0.000000e+00 | 8.877336e+00 |    Inf | unknown
  0.2s|     1 |     0 |  1016 |     - |    11M |   0 | 864 | 496 |1600 | 155 |  4 |   0 |   0 | 0.000000e+00 | 8.877336e+00 |    Inf | unknown
  0.2s|     1 |     0 |  1098 |     - |    12M |   0 | 864 | 496 |1641 | 196 |  5 |   0 |   0 | 0.000000e+00 | 8.877336e+00 |    Inf | unknown
  0.2s|     1 |     0 |  1143 |     - |    12M |   0 | 864 | 496 |1671 | 226 |  6 |   0 |   0 | 0.000000e+00 | 8.877336e+00 |    Inf | unknown
  0.2s|     1 |     0 |  1176 |     - |    12M |   0 | 864 | 496 |1698 | 253 |  7 |   0 |   0 | 0.000000e+00 | 8.877336e+00 |    Inf | unknown
  0.2s|     1 |     0 |  1223 |     - |    12M |   0 | 864 | 496 |1719 | 274 |  8 |   0 |   0 | 0.000000e+00 | 8.877336e+00 |    Inf | unknown
  0.3s|     1 |     0 |  1251 |     - |    13M |   0 | 864 | 496 |1738 | 293 |  9 |   0 |   0 | 0.000000e+00 | 8.877336e+00 |    Inf | unknown
  0.3s|     1 |     0 |  1284 |     - |    13M |   0 | 864 | 496 |1753 | 308 | 10 |   0 |   0 | 0.000000e+00 | 8.877336e+00 |    Inf | unknown
  0.3s|     1 |     0 |  1317 |     - |    13M |   0 | 864 | 496 | 994 | 329 | 11 |   0 |   0 | 0.000000e+00 | 8.877336e+00 |    Inf | unknown
  0.3s|     1 |     0 |  1333 |     - |    13M |   0 | 864 | 496 |1016 | 351 | 12 |   0 |   0 | 0.000000e+00 | 8.877336e+00 |    Inf | unknown
 time | node  | left  |LP iter|LP it/n|mem/heur|mdpt |vars |cons |rows |cuts |sepa|confs|strbr|  dualbound   | primalbound  |  gap   | compl. 
  0.3s|     1 |     0 |  1349 |     - |    13M |   0 | 864 | 496 |1039 | 374 | 13 |   0 |   0 | 0.000000e+00 | 8.877336e+00 |    Inf | unknown
  0.3s|     1 |     0 |  1353 |     - |    13M |   0 | 864 | 496 |1054 | 389 | 14 |   0 |   0 | 0.000000e+00 | 8.877336e+00 |    Inf | unknown
  0.3s|     1 |     0 |  1357 |     - |    13M |   0 | 864 | 496 |1069 | 404 | 15 |   0 |   0 | 0.000000e+00 | 8.877336e+00 |    Inf | unknown
  0.3s|     1 |     0 |  1360 |     - |    14M |   0 | 864 | 496 |1078 | 413 | 16 |   0 |   0 | 0.000000e+00 | 8.877336e+00 |    Inf | unknown
  0.3s|     1 |     0 |  1363 |     - |    14M |   0 | 864 | 496 | 930 | 422 | 17 |   0 |   0 | 0.000000e+00 | 8.877336e+00 |    Inf | unknown
  0.3s|     1 |     0 |  1366 |     - |    14M |   0 | 864 | 496 | 939 | 431 | 18 |   0 |   0 | 0.000000e+00 | 8.877336e+00 |    Inf | unknown
  0.3s|     1 |     0 |  1369 |     - |    14M |   0 | 864 | 496 | 948 | 440 | 19 |   0 |   0 | 0.000000e+00 | 8.877336e+00 |    Inf | unknown
  0.3s|     1 |     0 |  1372 |     - |    14M |   0 | 864 | 496 | 957 | 449 | 20 |   0 |   0 | 0.000000e+00 | 8.877336e+00 |    Inf | unknown
  0.6s|     1 |     0 |  6955 |     - |    14M |   0 | 864 | 483 | 957 | 449 | 21 |   0 |   0 | 0.000000e+00 | 8.877336e+00 |    Inf | unknown
L 0.7s|     1 |     0 |  6997 |     - |    rens|   0 | 864 | 483 | 957 | 449 | 22 |   0 |   0 | 0.000000e+00 | 8.152527e+00 |    Inf | unknown
  1.2s|     1 |     0 |  6998 |     - |    15M |   0 | 864 | 483 | 957 | 449 | 22 |   0 |   0 | 0.000000e+00 | 8.152527e+00 |    Inf | unknown
  1.2s|     1 |     0 |  6999 |     - |    15M |   0 | 864 | 483 | 957 | 449 | 23 |   0 |   1 | 0.000000e+00 | 8.152527e+00 |    Inf | unknown
  1.2s|     1 |     0 |  7001 |     - |    15M |   0 | 864 | 483 | 957 | 449 | 24 |   0 |   2 | 0.000000e+00 | 8.152527e+00 |    Inf | unknown
  1.2s|     1 |     0 |  7031 |     - |    15M |   0 | 864 | 483 | 825 | 451 | 25 |   0 |   2 | 0.000000e+00 | 8.152527e+00 |    Inf | unknown
  1.2s|     1 |     0 |  7033 |     - |    15M |   0 | 864 | 483 | 829 | 455 | 26 |   0 |   2 | 0.000000e+00 | 8.152527e+00 |    Inf | unknown
 time | node  | left  |LP iter|LP it/n|mem/heur|mdpt |vars |cons |rows |cuts |sepa|confs|strbr|  dualbound   | primalbound  |  gap   | compl. 
  1.2s|     1 |     0 |  7033 |     - |    15M |   0 | 864 | 483 | 829 | 455 | 26 |   0 |   3 | 0.000000e+00 | 8.152527e+00 |    Inf | unknown
  1.2s|     1 |     0 |  7038 |     - |    15M |   0 | 864 | 483 | 838 | 464 | 27 |   0 |   3 | 0.000000e+00 | 8.152527e+00 |    Inf | unknown
  1.2s|     1 |     0 |  7039 |     - |    15M |   0 | 864 | 483 | 839 | 465 | 28 |   0 |   3 | 0.000000e+00 | 8.152527e+00 |    Inf | unknown
  1.2s|     1 |     0 |  7039 |     - |    15M |   0 | 864 | 483 | 839 | 465 | 28 |   0 |   4 | 0.000000e+00 | 8.152527e+00 |    Inf | unknown
  1.2s|     1 |     0 |  7052 |     - |    15M |   0 | 864 | 483 | 852 | 478 | 29 |   0 |   4 | 0.000000e+00 | 8.152527e+00 |    Inf | unknown
  1.2s|     1 |     2 |  7052 |     - |    15M |   0 | 864 | 483 | 852 | 478 | 30 |   0 |   4 | 0.000000e+00 | 8.152527e+00 |    Inf | unknown
d 1.4s|     6 |     7 |  7488 |1253.4 |nlpdivin|   5 | 864 | 483 |1008 |   0 |  8 |   0 |   4 | 0.000000e+00 | 4.427453e+00 |    Inf | unknown
d 1.6s|     9 |    10 |  7837 | 827.0 |nlpdivin|   5 | 864 | 483 | 997 |   0 |  8 |   0 |   4 | 0.000000e+00 | 4.332165e+00 |    Inf | unknown
d 3.3s|    89 |    76 | 17486 | 184.8 |nlpdivin|  17 | 864 | 483 |1129 |   0 | 11 |   0 |  45 | 0.000000e+00 | 2.256692e+00 |    Inf |   2.23%
  3.6s|   100 |    85 | 19099 | 180.6 |    21M |  17 | 864 | 483 |1010 |9409 | 12 |   0 |  59 | 0.000000e+00 | 2.256692e+00 |    Inf |   2.30%
  5.4s|   200 |   155 | 32498 | 157.2 |    26M |  17 | 864 | 483 | 926 |  18k|  2 |   0 |  98 | 0.000000e+00 | 2.256692e+00 |    Inf |   6.26%
  7.6s|   300 |   223 | 44863 | 146.0 |    30M |  17 | 864 | 483 | 929 |  27k|  3 |   1 | 120 | 0.000000e+00 | 2.256692e+00 |    Inf |  10.02%
  9.8s|   400 |   281 | 55978 | 137.2 |    32M |  17 | 864 | 483 |1124 |  34k| 10 |   1 | 178 | 6.072969e-02 | 2.256692e+00 |3615.96%|  15.67%
L11.0s|   476 |   284 | 63049 | 130.2 |    alns|  20 | 864 | 483 |1083 |  38k|  3 |   3 | 221 | 1.087535e-01 | 2.070372e+00 |1803.73%|  22.18%
L11.0s|   476 |   284 | 63049 | 130.2 |    alns|  20 | 864 | 483 |1083 |  38k|  3 |   3 | 221 | 1.087535e-01 | 2.070365e+00 |1803.72%|  22.18%
 time | node  | left  |LP iter|LP it/n|mem/heur|mdpt |vars |cons |rows |cuts |sepa|confs|strbr|  dualbound   | primalbound  |  gap   | compl. 
 11.4s|   500 |   296 | 64696 | 127.2 |    34M |  24 | 864 | 483 |1179 |  39k|  7 |   3 | 227 | 1.087853e-01 | 2.070365e+00 |1803.17%|  23.38%
L12.2s|   553 |   214 | 68029 | 121.0 |    alns|  24 | 864 | 483 |1059 |  41k|  2 |   3 | 245 | 1.353613e-01 | 1.691820e+00 |1149.86%|  31.24%
L12.3s|   553 |   214 | 68029 | 121.0 |    alns|  24 | 864 | 483 |1059 |  41k|  2 |   3 | 245 | 1.353613e-01 | 1.691816e+00 |1149.85%|  31.24%
 13.0s|   600 |   223 | 71239 | 116.9 |    36M |  24 | 864 | 483 |1099 |  43k|  4 |   4 | 255 | 2.284291e-01 | 1.691816e+00 | 640.63%|  33.19%
 14.3s|   700 |   257 | 77474 | 109.1 |    37M |  24 | 864 | 483 | 970 |  47k|  1 |   4 | 278 | 2.394265e-01 | 1.691816e+00 | 606.61%|  36.39%
 15.7s|   800 |   299 | 85265 | 105.2 |    39M |  24 | 864 | 483 |1196 |  52k| 11 |   6 | 310 | 3.471967e-01 | 1.691816e+00 | 387.28%|  39.76%
 16.9s|   900 |   321 | 90556 |  99.4 |    39M |  25 | 864 | 483 |1077 |  55k|  3 |   7 | 334 | 3.604923e-01 | 1.691816e+00 | 369.31%|  40.71%
 18.0s|  1000 |   339 | 96396 |  95.3 |    40M |  25 | 864 | 483 | 954 |  58k|  2 |   8 | 347 | 3.773787e-01 | 1.691816e+00 | 348.31%|  42.95%
 19.1s|  1100 |   345 |101439 |  91.2 |    41M |  26 | 864 | 483 |1131 |  61k|  3 |  11 | 361 | 4.164785e-01 | 1.691816e+00 | 306.22%|  46.55%
 20.0s|  1200 |   347 |105759 |  87.2 |    42M |  26 | 864 | 483 | 959 |  64k|  3 |  11 | 366 | 4.305012e-01 | 1.691816e+00 | 292.99%|  48.68%
 21.2s|  1300 |   355 |111793 |  85.1 |    43M |  26 | 864 | 483 |1111 |  67k|  2 |  12 | 379 | 4.361291e-01 | 1.691816e+00 | 287.92%|  50.26%
 22.2s|  1400 |   357 |116438 |  82.4 |    44M |  26 | 864 | 483 |1132 |  70k|  0 |  13 | 385 | 4.875427e-01 | 1.691816e+00 | 247.01%|  53.48%
 23.3s|  1500 |   371 |121975 |  80.6 |    45M |  26 | 864 | 483 |1202 |  73k| 13 |  14 | 397 | 4.888973e-01 | 1.691816e+00 | 246.05%|  54.84%
 24.2s|  1600 |   381 |127357 |  78.9 |    45M |  26 | 864 | 483 |1121 |  75k|  3 |  15 | 403 | 5.101717e-01 | 1.691816e+00 | 231.62%|  58.03%
 25.2s|  1700 |   389 |132244 |  77.1 |    46M |  26 | 864 | 483 |1041 |  78k| 10 |  17 | 414 | 5.352759e-01 | 1.691816e+00 | 216.06%|  60.61%
 time | node  | left  |LP iter|LP it/n|mem/heur|mdpt |vars |cons |rows |cuts |sepa|confs|strbr|  dualbound   | primalbound  |  gap   | compl. 
 26.2s|  1800 |   407 |137200 |  75.6 |    46M |  26 | 864 | 483 |1160 |  81k|  2 |  18 | 423 | 6.021431e-01 | 1.691816e+00 | 180.97%|  62.76%
 27.1s|  1900 |   417 |141460 |  73.8 |    47M |  26 | 864 | 483 |1161 |  83k|  6 |  18 | 427 | 6.443683e-01 | 1.691816e+00 | 162.55%|  62.85%
 28.0s|  2000 |   427 |146006 |  72.4 |    47M |  26 | 864 | 483 | 946 |  86k|  2 |  20 | 435 | 6.443683e-01 | 1.691816e+00 | 162.55%|  63.10%
 28.9s|  2100 |   437 |150507 |  71.1 |    47M |  26 | 864 | 483 |1003 |  88k|  3 |  22 | 437 | 6.778179e-01 | 1.691816e+00 | 149.60%|  66.60%
 29.9s|  2200 |   441 |156190 |  70.5 |    49M |  26 | 864 | 483 |1006 |  91k|  3 |  23 | 444 | 8.605298e-01 | 1.691816e+00 |  96.60%|  71.09%
 30.7s|  2300 |   441 |161538 |  69.7 |    50M |  26 | 864 | 483 |1051 |  94k|  1 |  23 | 452 | 9.507901e-01 | 1.691816e+00 |  77.94%|  71.65%
 31.5s|  2400 |   451 |166119 |  68.7 |    50M |  26 | 864 | 483 |1058 |  96k|  1 |  24 | 459 | 9.627882e-01 | 1.691816e+00 |  75.72%|  72.60%
 32.3s|  2500 |   449 |169661 |  67.4 |    50M |  31 | 864 | 483 |   0 |  98k|  0 |  25 | 465 | 1.010420e+00 | 1.691816e+00 |  67.44%|  73.41%
 33.2s|  2600 |   457 |173836 |  66.4 |    51M |  31 | 864 | 483 |1227 | 100k| 10 |  25 | 471 | 1.026705e+00 | 1.691816e+00 |  64.78%|  73.93%
 33.9s|  2700 |   445 |177674 |  65.4 |    51M |  31 | 864 | 483 |1116 | 103k|  0 |  25 | 471 | 1.053380e+00 | 1.691816e+00 |  60.61%|  75.40%
 34.7s|  2800 |   439 |181602 |  64.4 |    51M |  31 | 864 | 483 |1191 | 105k|  2 |  25 | 477 | 1.097279e+00 | 1.691816e+00 |  54.18%|  76.14%
 35.5s|  2900 |   435 |185350 |  63.5 |    52M |  31 | 864 | 483 |1151 | 106k|  2 |  25 | 484 | 1.141986e+00 | 1.691816e+00 |  48.15%|  77.19%
 36.3s|  3000 |   435 |189512 |  62.8 |    52M |  31 | 864 | 483 |1239 | 108k|  2 |  25 | 486 | 1.148270e+00 | 1.691816e+00 |  47.34%|  77.64%
 37.0s|  3100 |   427 |192977 |  61.9 |    52M |  31 | 864 | 483 |1149 | 110k|  2 |  25 | 488 | 1.191240e+00 | 1.691816e+00 |  42.02%|  79.66%
 37.9s|  3200 |   425 |197516 |  61.4 |    53M |  31 | 864 | 483 |1123 | 112k|  2 |  26 | 495 | 1.191240e+00 | 1.691816e+00 |  42.02%|  80.94%
 time | node  | left  |LP iter|LP it/n|mem/heur|mdpt |vars |cons |rows |cuts |sepa|confs|strbr|  dualbound   | primalbound  |  gap   | compl. 
*38.0s|  3219 |   418 |197998 |  61.1 |    LP  |  31 | 864 | 483 |1212 | 113k|  8 |  26 | 495 | 1.191240e+00 | 1.691812e+00 |  42.02%|  81.04%
 38.5s|  3300 |   395 |201179 |  60.6 |    53M |  31 | 864 | 483 | 995 | 114k|  2 |  27 | 497 | 1.235292e+00 | 1.691812e+00 |  36.96%|  84.23%
 39.3s|  3400 |   387 |205761 |  60.2 |    53M |  31 | 864 | 483 |1224 | 116k|  0 |  29 | 504 | 1.272757e+00 | 1.691812e+00 |  32.93%|  85.75%
 40.0s|  3500 |   375 |209286 |  59.5 |    53M |  31 | 864 | 483 |1122 | 118k|  0 |  30 | 507 | 1.279558e+00 | 1.691812e+00 |  32.22%|  86.49%
 40.7s|  3600 |   357 |214253 |  59.2 |    54M |  31 | 864 | 483 | 947 | 120k|  2 |  32 | 510 | 1.288125e+00 | 1.691812e+00 |  31.34%|  88.10%
*41.1s|  3659 |    48 |216152 |  58.8 |    LP  |  31 | 864 | 483 |1283 | 121k|  7 |  34 | 512 | 1.295059e+00 | 1.463220e+00 |  12.98%|  93.76%
 41.4s|  3700 |    33 |217682 |  58.5 |    54M |  31 | 864 | 483 |1325 | 121k|  2 |  39 | 518 | 1.300123e+00 | 1.463220e+00 |  12.54%|  95.99%
 42.0s|  3800 |     3 |221030 |  57.9 |    54M |  31 | 864 | 241 |1059 | 122k|  1 |  42 | 523 | 1.456159e+00 | 1.463220e+00 |   0.48%|  99.99%

SCIP Status        : problem is solved [optimal solution found]
Solving Time (sec) : 42.03
Solving Nodes      : 3803
Primal Bound       : +1.46321994424827e+00 (18 solutions)
Dual Bound         : +1.46321994424827e+00
Gap                : 0.00 %


--- Reading solution for model GAMS_MODEL
***
*** Solver did not provide marginals for model GAMS_MODEL
***
--- Executing after solve: elapsed 0:00:42.104
--- model.gms(1669) 3 Mb
--- model.gms(2470) 5 Mb
--- Putfile results /local/scratch/a/sgusev/repos/k_means/data/gams_scip_gdp.hull/no_mode/2026-02-15_22-09-37/original/results.dat
--- Putfile statresults /local/scratch/a/sgusev/repos/k_means/data/gams_scip_gdp.hull/no_mode/2026-02-15_22-09-37/original/resultsstat.dat
*** Status: Normal completion
--- Job model.gms Stop 02/15/26 22:10:20 elapsed 0:00:42.106
Original problem solved. Time taken: 42.73770499229431 seconds
Original objective value: 1.463219944251853
